; benchmark generated from python API
(set-info :status unknown)
(declare-fun x_days () Int)
(assert
 (>= x_days (- 36525)))
(assert
 (<= x_days 36525))
(assert
 (>= x_days 8341))
(assert
 (<= x_days 8705))
(assert
 (let (($x29 (or (and (= (mod 2000 4) 0) (and (distinct (mod 2000 100) 0) true)) (= (mod 2000 400) 0))))
(let ((?x36 (ite (= 3 2) (ite $x29 31 31) (ite (= 3 1) (ite $x29 0 0) 0))))
(let ((?x40 (ite $x29 60 59)))
(let ((?x41 (ite (= 3 3) ?x40 ?x36)))
(let ((?x46 (ite (= 3 4) (ite $x29 91 90) ?x41)))
(let ((?x52 (ite (= 3 5) (ite $x29 121 120) ?x46)))
(let ((?x58 (ite (= 3 6) (ite $x29 152 151) ?x52)))
(let ((?x64 (ite (= 3 7) (ite $x29 182 181) ?x58)))
(let ((?x70 (ite (= 3 8) (ite $x29 213 212) ?x64)))
(let ((?x76 (ite (= 3 9) (ite $x29 244 243) ?x70)))
(let ((?x82 (ite (= 3 10) (ite $x29 274 273) ?x76)))
(let ((?x88 (ite (= 3 11) (ite $x29 305 304) ?x82)))
(let ((?x16 (- (+ (* 365 (- 2000 1)) (div (- 2000 1) 4)) (div (- 2000 1) 100))))
(let ((?x95 (+ (+ ?x16 (div (- 2000 1) 400)) (ite (= 3 12) (ite $x29 335 334) ?x88))))
(let ((?x97 (+ ?x95 (- 1 1))))
(let ((?x444 (+ x_days ?x97)))
(let ((?x679 (mod ?x444 146097)))
(let ((?x273 (div ?x679 36524)))
(let ((?x638 (ite (<= 4 ?x273) 3 ?x273)))
(let ((?x1661 (- ?x679 (* ?x638 36524))))
(let ((?x284 (mod ?x1661 1461)))
(let ((?x1880 (div ?x284 365)))
(let ((?x941 (ite (<= 4 ?x1880) 3 ?x1880)))
(let ((?x1580 (+ (+ (* (div ?x444 146097) 400) (* ?x638 100)) (* (div ?x1661 1461) 4))))
(let ((?x530 (+ (+ ?x1580 ?x941) 1)))
(let (($x645 (or (and (= (mod ?x530 4) 0) (and (distinct (mod ?x530 100) 0) true)) (= (mod ?x530 400) 0))))
(let ((?x541 (- ?x284 (* ?x941 365))))
(let ((?x314 (ite $x645 31 31)))
(let (($x3930 (>= ?x541 ?x314)))
(let ((?x930 (ite $x3930 (+ (- ?x541 ?x314) 1) (+ (- ?x541 (ite $x645 0 0)) 1))))
(let ((?x426 (ite $x645 60 59)))
(let (($x165 (>= ?x541 ?x426)))
(let ((?x636 (ite $x645 91 90)))
(let (($x3945 (>= ?x541 ?x636)))
(let ((?x3900 (ite $x3945 (+ (- ?x541 ?x636) 1) (ite $x165 (+ (- ?x541 ?x426) 1) ?x930))))
(let ((?x1842 (ite $x645 121 120)))
(let (($x310 (>= ?x541 ?x1842)))
(let ((?x1198 (ite $x645 152 151)))
(let (($x936 (>= ?x541 ?x1198)))
(let ((?x1812 (ite $x936 (+ (- ?x541 ?x1198) 1) (ite $x310 (+ (- ?x541 ?x1842) 1) ?x3900))))
(let ((?x1885 (ite $x645 182 181)))
(let (($x371 (>= ?x541 ?x1885)))
(let ((?x1350 (ite $x645 213 212)))
(let (($x469 (>= ?x541 ?x1350)))
(let ((?x322 (ite $x469 (+ (- ?x541 ?x1350) 1) (ite $x371 (+ (- ?x541 ?x1885) 1) ?x1812))))
(let ((?x510 (ite $x645 244 243)))
(let (($x672 (>= ?x541 ?x510)))
(let ((?x138 (ite $x645 274 273)))
(let (($x656 (>= ?x541 ?x138)))
(let ((?x946 (ite $x656 (+ (- ?x541 ?x138) 1) (ite $x672 (+ (- ?x541 ?x510) 1) ?x322))))
(let ((?x185 (ite $x645 305 304)))
(let (($x1515 (>= ?x541 ?x185)))
(let ((?x262 (ite $x645 335 334)))
(let (($x113 (>= ?x541 ?x262)))
(let ((?x415 (ite $x113 (+ (- ?x541 ?x262) 1) (ite $x1515 (+ (- ?x541 ?x185) 1) ?x946))))
(let ((?x1790 (ite $x310 5 (ite $x3945 4 (ite $x165 3 (ite $x3930 2 1))))))
(let ((?x582 (ite $x672 9 (ite $x469 8 (ite $x371 7 (ite $x936 6 ?x1790))))))
(let ((?x121 (ite $x113 12 (ite $x1515 11 (ite $x656 10 ?x582)))))
(let ((?x1115 (- (+ ?x121 0) 1)))
(let ((?x208 (+ (mod ?x1115 12) 1)))
(let ((?x1112 (ite (or (= ?x208 4) (= ?x208 6) (= ?x208 9) (= ?x208 11)) 30 31)))
(let (($x573 (and (= (mod (+ (+ ?x530 0) (div ?x1115 12)) 4) 0) (and (distinct (mod (+ (+ ?x530 0) (div ?x1115 12)) 100) 0) true))))
(let (($x569 (or $x573 (= (mod (+ (+ ?x530 0) (div ?x1115 12)) 400) 0))))
(let ((?x210 (ite (= ?x208 2) (ite $x569 29 28) ?x1112)))
(let (($x3903 (> 1 ?x415)))
(let ((?x215 (ite (= 2 ?x208) (ite $x569 31 31) (ite (= 1 ?x208) (ite $x569 0 0) 0))))
(let ((?x1555 (ite (= 4 ?x208) (ite $x569 91 90) (ite (= 3 ?x208) (ite $x569 60 59) ?x215))))
(let ((?x261 (ite (= 6 ?x208) (ite $x569 152 151) (ite (= 5 ?x208) (ite $x569 121 120) ?x1555))))
(let ((?x1182 (ite (= 8 ?x208) (ite $x569 213 212) (ite (= 7 ?x208) (ite $x569 182 181) ?x261))))
(let ((?x422 (ite (= 10 ?x208) (ite $x569 274 273) (ite (= 9 ?x208) (ite $x569 244 243) ?x1182))))
(let ((?x586 (ite (= 12 ?x208) (ite $x569 335 334) (ite (= 11 ?x208) (ite $x569 305 304) ?x422))))
(let ((?x554 (+ (* 365 (- (+ (+ ?x530 0) (div ?x1115 12)) 1)) (div (- (+ (+ ?x530 0) (div ?x1115 12)) 1) 4))))
(let ((?x197 (+ (- ?x554 (div (- (+ (+ ?x530 0) (div ?x1115 12)) 1) 100)) (div (- (+ (+ ?x530 0) (div ?x1115 12)) 1) 400))))
(let ((?x596 (+ (+ ?x197 ?x586) (- (ite $x3903 1 (ite (> ?x415 ?x210) ?x210 ?x415)) 1))))
(let (($x259 (or (= (+ (mod (- (+ ?x121 2) 1) 12) 1) 4) (= (+ (mod (- (+ ?x121 2) 1) 12) 1) 6) (= (+ (mod (- (+ ?x121 2) 1) 12) 1) 9) (= (+ (mod (- (+ ?x121 2) 1) 12) 1) 11))))
(let (($x670 (= (mod (+ (+ ?x530 0) (div (- (+ ?x121 2) 1) 12)) 400) 0)))
(let (($x524 (and (distinct (mod (+ (+ ?x530 0) (div (- (+ ?x121 2) 1) 12)) 100) 0) true)))
(let (($x1307 (= (mod (+ (+ ?x530 0) (div (- (+ ?x121 2) 1) 12)) 4) 0)))
(let (($x357 (or (and $x1307 $x524) $x670)))
(let ((?x1410 (ite (= (+ (mod (- (+ ?x121 2) 1) 12) 1) 2) (ite $x357 29 28) (ite $x259 30 31))))
(let ((?x306 (ite (= 1 (+ (mod (- (+ ?x121 2) 1) 12) 1)) (ite $x357 0 0) 0)))
(let ((?x1238 (ite (= 2 (+ (mod (- (+ ?x121 2) 1) 12) 1)) (ite $x357 31 31) ?x306)))
(let ((?x1324 (ite (= 3 (+ (mod (- (+ ?x121 2) 1) 12) 1)) (ite $x357 60 59) ?x1238)))
(let ((?x1056 (ite (= 4 (+ (mod (- (+ ?x121 2) 1) 12) 1)) (ite $x357 91 90) ?x1324)))
(let ((?x1802 (ite (= 5 (+ (mod (- (+ ?x121 2) 1) 12) 1)) (ite $x357 121 120) ?x1056)))
(let ((?x179 (ite (= 6 (+ (mod (- (+ ?x121 2) 1) 12) 1)) (ite $x357 152 151) ?x1802)))
(let ((?x3965 (ite (= 7 (+ (mod (- (+ ?x121 2) 1) 12) 1)) (ite $x357 182 181) ?x179)))
(let ((?x2366 (ite (= 8 (+ (mod (- (+ ?x121 2) 1) 12) 1)) (ite $x357 213 212) ?x3965)))
(let ((?x484 (ite (= 9 (+ (mod (- (+ ?x121 2) 1) 12) 1)) (ite $x357 244 243) ?x2366)))
(let ((?x518 (ite (= 10 (+ (mod (- (+ ?x121 2) 1) 12) 1)) (ite $x357 274 273) ?x484)))
(let ((?x490 (ite (= 11 (+ (mod (- (+ ?x121 2) 1) 12) 1)) (ite $x357 305 304) ?x518)))
(let ((?x1098 (ite (= 12 (+ (mod (- (+ ?x121 2) 1) 12) 1)) (ite $x357 335 334) ?x490)))
(let ((?x683 (+ ?x530 0)))
(let ((?x461 (+ ?x683 (div (- (+ ?x121 2) 1) 12))))
(let ((?x342 (- ?x461 1)))
(let ((?x926 (+ (- (+ (* 365 ?x342) (div ?x342 4)) (div ?x342 100)) (div ?x342 400))))
(let ((?x606 (+ (+ ?x926 ?x1098) (- (ite $x3903 1 (ite (> ?x415 ?x1410) ?x1410 ?x415)) 1))))
(= (- (+ ?x606 0) ?x97) (- (+ ?x596 61) ?x97))))))))))))))))))))))))))))))))))))))))))))))))))))))))))))))))))))))))))))))))))))))))))))))))))))
(check-sat)
